(set-logic QF_LRA)
(set-info :ran/ran_9_1_lia.smt2)
(set-info :smt-lib-version 2.0)
(declare-fun x0 () Real)
(declare-fun x1 () Real)
(declare-fun x2 () Real)
(declare-fun x3 () Real)
(declare-fun x4 () Real)
(declare-fun x5 () Real)
(declare-fun x6 () Real)
(declare-fun x7 () Real)
(declare-fun x8 () Real)
(define-fun ie0 () Bool (<= (+ (* 96 x1) (* (- 95) x3) ) 15))
(define-fun ie1 () Bool (<= (+ (* (- 4) x7) (* (- 80) x6) ) 72))
(define-fun ie2 () Bool (<= (+ (* 53 x4) (* (- 1) x5) ) 26))
(define-fun ie3 () Bool (<= (+ (* 88 x5) (* 97 x0) ) 75))
(define-fun ie4 () Bool (<= (+ (* 90 x6) (* 41 x8) ) (- 73)))
(define-fun ie5 () Bool (<= (+ (* 71 x1) (* (- 19) x8) ) (- 47)))
(define-fun ie6 () Bool (<= (+ (* 43 x6) (* (- 98) x6) ) 62))
(define-fun ie7 () Bool (<= (+ (* (- 31) x5) (* 44 x7) ) (- 94)))
(define-fun ie8 () Bool (<= (+ (* 17 x3) (* 87 x0) ) 8))
(assert ie0)
(assert ie1)
(assert ie2)
(assert ie3)
(assert ie4)
(assert ie5)
(assert ie6)
(assert ie7)
(assert ie8)
(check-sat)
(exit)
